0 3 5 5 9 1 2 4 2 6 5 4 3 2 1 8
5 0 1 4 8 7 6 12 7 8 3 4 5 5 6 7
5 5 0 7 5 2 7 9 8 5 6 7 9 4 2 1
5 6 5 0 9 1 4 4 7 9 4 5 6 3 2 1
2 12 7 7 0 5 8 12 2 1 4 5 6 8 9 1
8 6 3 9 4 0 2 3 9 1 12 8 5 4 3 2
3 2 1 1 7 1 0 2 1 1 2 5 17 2 4 7
3 5 7 7 3 8 1 0 1 2 4 5 7 6 8 9
1 3 8 7 2 3 4 9 0 6 3 9 7 5 6 7
2 5 8 6 1 1 2 4 2 0 3 2 4 6 7 3
3 6 6 9 1 9 3 5 4 2 0 3 1 2 8 1
4 5 4 2 8 7 4 6 2 5 5 0 5 4 6 2
8 6 5 5 4 4 8 8 1 6 7 8 0 4 5 3
7 9 7 3 3 4 5 6 4 7 5 4 9 0 4 7
2 4 6 0 2 2 1 9 5 7 4 7 8 2 0 5
3 5 5 5 9 8 7 6 5 2 6 9 3 6 4 0